NAME: tsp_370
COMMENT: Random TSP instance
TYPE: TSP
DIMENSION: 50
EDGE_WEIGHT_TYPE: EUC_2D
NODE_COORD_SECTION
1 497 34
2 969 968
3 943 681
4 92 698
5 492 34
6 869 97
7 960 516
8 891 419
9 600 102
10 736 874
11 453 362
12 255 928
13 10 544
14 176 49
15 931 355
16 274 601
17 578 938
18 20 668
19 593 952
20 328 227
21 278 33
22 279 483
23 602 367
24 559 618
25 658 867
26 804 202
27 544 274
28 767 541
29 943 52
30 674 8
31 596 205
32 650 594
33 100 896
34 392 494
35 703 641
36 725 680
37 230 222
38 98 702
39 296 203
40 834 169
41 596 696
42 688 966
43 845 402
44 83 726
45 466 339
46 170 915
47 552 652
48 463 397
49 380 269
50 211 892
